c description: Random 3-CNF over 20 variables and 85 clauses
c generator: CNFgen (0.9.2)
c copyright: (C) 2012-2022 Massimo Lauria <massimo.lauria@uniroma1.it>
c url: https://massimolauria.net/cnfgen
c command line: cnfgen --output CNF_4.28/20_bit_85_266.cnf randkcnf 3 20 85
c
p cnf 20 85
-2 -10 -18 0
-4 -14 19 0
5 -19 20 0
-7 -8 -18 0
-6 -11 -17 0
-2 5 -11 0
-1 -11 -17 0
-3 -7 16 0
-9 -15 -19 0
1 9 20 0
1 -11 17 0
7 -11 -16 0
9 18 20 0
7 14 17 0
2 -19 20 0
8 -10 20 0
1 -17 19 0
-6 -7 9 0
-3 -15 -19 0
2 -5 9 0
4 6 16 0
5 13 19 0
-8 10 19 0
-5 -16 20 0
-11 -14 16 0
-7 16 18 0
-1 18 -19 0
5 9 -17 0
-6 -12 -17 0
3 -17 -19 0
-4 -8 -15 0
13 -14 16 0
6 12 17 0
-2 -6 -18 0
-3 -8 18 0
1 -11 13 0
11 15 17 0
-8 -16 -18 0
-6 7 -9 0
-2 -7 18 0
-4 7 10 0
-10 -11 -16 0
3 -4 -6 0
4 -8 -18 0
-7 8 19 0
2 10 -14 0
3 -13 -20 0
10 14 17 0
7 -10 12 0
-6 -19 -20 0
9 15 -17 0
-1 7 -17 0
5 -17 18 0
2 8 -10 0
2 -3 20 0
-8 -15 17 0
6 8 16 0
6 7 -10 0
-6 -13 19 0
1 -8 18 0
-4 -15 -17 0
2 -6 -13 0
-6 -10 17 0
4 13 -16 0
-2 -10 -13 0
-7 -11 -16 0
8 -16 -18 0
3 -7 10 0
-2 -6 17 0
-5 8 20 0
-4 -10 -14 0
8 -9 10 0
8 -9 -14 0
-8 12 -14 0
-2 12 14 0
-8 16 -19 0
-15 -16 18 0
10 -16 19 0
-2 4 -13 0
-3 16 20 0
8 -14 19 0
2 -5 -12 0
-2 14 -20 0
4 9 18 0
4 -10 -13 0
